(set-option :produce-proofs true)
(set-info :source "{ Generated by Princess (http://www.philipp.ruemmer.org/princess.shtml) }")
(set-info :status unknown)
(set-logic QF_LIA)
(declare-fun predv_princess_62 () Bool)
(declare-fun predv_princess_61 () Bool)
(declare-fun predv_princess_60 () Bool)
(declare-fun predv_princess_59 () Bool)
(declare-fun predv_princess_58 () Bool)
(declare-fun predv_princess_57 () Bool)
(declare-fun predv_princess_56 () Bool)
(declare-fun predv_princess_55 () Bool)
(declare-fun predv_princess_54 () Bool)
(declare-fun predv_princess_53 () Bool)
(declare-fun predv_princess_52 () Bool)
(declare-fun predv_princess_51 () Bool)
(declare-fun predv_princess_50 () Bool)
(declare-fun predv_princess_49 () Bool)
(declare-fun predv_princess_48 () Bool)
(declare-fun predv_princess_47 () Bool)
(declare-fun predv_princess_46 () Bool)
(declare-fun predv_princess_45 () Bool)
(declare-fun predv_princess_44 () Bool)
(declare-fun predv_princess_43 () Bool)
(declare-fun predv_princess_42 () Bool)
(declare-fun predv_princess_41 () Bool)
(declare-fun predv_princess_40 () Bool)
(declare-fun predv_princess_39 () Bool)
(declare-fun predv_princess_38 () Bool)
(declare-fun predv_princess_37 () Bool)
(declare-fun predv_princess_36 () Bool)
(declare-fun predv_princess_35 () Bool)
(declare-fun predv_princess_34 () Bool)
(declare-fun predv_princess_33 () Bool)
(declare-fun predv_princess_32 () Bool)
(declare-fun predv_princess_31 () Bool)
(declare-fun predv_princess_30 () Bool)
(declare-fun predv_princess_29 () Bool)
(declare-fun predv_princess_28 () Bool)
(declare-fun predv_princess_27 () Bool)
(declare-fun predv_princess_26 () Bool)
(declare-fun predv_princess_25 () Bool)
(declare-fun predv_princess_24 () Bool)
(declare-fun predv_princess_23 () Bool)
(declare-fun predv_princess_22 () Bool)
(declare-fun predv_princess_21 () Bool)
(declare-fun predv_princess_20 () Bool)
(declare-fun predv_princess_19 () Bool)
(declare-fun predv_princess_18 () Bool)
(declare-fun predv_princess_17 () Bool)
(declare-fun predv_princess_16 () Bool)
(declare-fun predv_princess_15 () Bool)
(declare-fun constv0 () Int)
(declare-fun constv1 () Int)
(declare-fun constv2 () Int)
(declare-fun consts_0 () Int)
(declare-fun consto_0 () Int)
(declare-fun consts_1 () Int)
(declare-fun consto_1 () Int)
(declare-fun consto_2 () Int)
(declare-fun consts_3 () Int)
(declare-fun consto_3 () Int)
(declare-fun constv_princess_66 () Int)
(declare-fun constv_princess_65 () Int)
(declare-fun constv_princess_14 () Int)
(declare-fun constv_princess_13 () Int)
(declare-fun constv_princess_12 () Int)
(declare-fun constv_princess_11 () Int)
(declare-fun constv_princess_10 () Int)
(declare-fun constv_princess_9 () Int)
(declare-fun constv_princess_8 () Int)
(declare-fun constv_princess_7 () Int)
(declare-fun constv_princess_6 () Int)
(declare-fun constv_princess_5 () Int)
(declare-fun constv_princess_4 () Int)
(declare-fun constv_princess_3 () Int)
(declare-fun constv_princess_2 () Int)
(declare-fun constv_princess_1 () Int)
(declare-fun constv_princess_0 () Int)
(assert (! (and (not (or (or (or (or (or (or (or (or (or (or (and (and predv_princess_33 predv_princess_42) (not predv_princess_43)) (and (or (not (<= 0 (+ 1 (* (- 1) consto_0)))) (not (<= 0 (+ consto_0 (* (- 1) 0))))) predv_princess_32)) (and (and predv_princess_16 predv_princess_59) (not predv_princess_60))) (and (or (not predv_princess_35) (not predv_princess_40)) predv_princess_41)) (not (= 0 (+ constv_princess_2 (* (- 1) (+ constv_princess_1 (* (- 1) (* 16 consto_2)))))))) (and (and predv_princess_24 predv_princess_51) (not predv_princess_52))) (and (and predv_princess_28 predv_princess_47) (not predv_princess_48))) (and (or (not predv_princess_30) (not predv_princess_45)) predv_princess_46)) (and (and (<= 0 (+ (+ 16 (* (- 1) constv0)) (- 1))) (<= 0 (+ constv0 (* (- 1) 0)))) (not predv_princess_38))) (and (and (or (not (<= 0 (+ (+ constv_princess_7 (* (- 1) 16)) (- 1)))) (<= 0 (+ consts_1 (* (- 1) 1)))) (or (<= 0 (+ (+ constv_princess_7 (* (- 1) 16)) (- 1))) (not (<= 0 (+ consts_1 (* (- 1) 1)))))) (not predv_princess_27))) (not predv_princess_62))) (not (or (or (or (or (or (or (or (or (or (or (or (not (= 0 (+ constv_princess_7 (* (- 1) (* 4 constv2))))) (not (= 0 (+ constv_princess_3 (* (- 1) (* 2 constv_princess_2)))))) (and (or (not (<= 0 (+ (+ 16 (* (- 1) constv_princess_8)) (- 1)))) (not (<= 0 (+ constv_princess_8 (* (- 1) 0))))) predv_princess_28)) (and (or (not predv_princess_25) (not predv_princess_50)) predv_princess_51)) (and (and predv_princess_17 predv_princess_58) (not predv_princess_59))) (and (and (<= 0 (+ (+ 4 (* (- 1) consts_1)) (- 1))) (<= 0 (+ consts_1 (* (- 1) 0)))) (not predv_princess_29))) (and (or (not predv_princess_34) (not predv_princess_41)) predv_princess_42)) (and (or (and (<= 0 (+ (+ constv_princess_11 (* (- 1) 16)) (- 1))) (not (= 0 (+ consto_0 (* (- 1) 1))))) (and (not (<= 0 (+ (+ constv_princess_11 (* (- 1) 16)) (- 1)))) (= 0 (+ consto_0 (* (- 1) 1))))) predv_princess_30)) (and (and (<= 0 (+ (+ 16 (* (- 1) constv_princess_6)) (- 1))) (<= 0 (+ constv_princess_6 (* (- 1) 0)))) (not predv_princess_16))) (and (or (and (<= 0 (+ (+ constv_princess_1 (* (- 1) 16)) (- 1))) (not (= 0 (+ consto_2 (* (- 1) 1))))) (and (not (<= 0 (+ (+ constv_princess_1 (* (- 1) 16)) (- 1)))) (= 0 (+ consto_2 (* (- 1) 1))))) predv_princess_21)) (and (or (not predv_princess_21) (not predv_princess_54)) predv_princess_55)) (not (= 0 (+ constv_princess_11 (* (- 1) (+ constv0 constv_princess_10))))))) (not (or (or (or (or (or (or (or (or (or (or (or (and (or (and (<= 0 (+ (+ constv_princess_7 (* (- 1) 16)) (- 1))) (not (<= 0 (+ consts_1 (* (- 1) 1))))) (and (not (<= 0 (+ (+ constv_princess_7 (* (- 1) 16)) (- 1)))) (<= 0 (+ consts_1 (* (- 1) 1))))) predv_princess_27) (and (or (not (<= 0 (+ (+ 2 (* (- 1) consts_0)) (- 1)))) (not (<= 0 (+ consts_0 (* (- 1) 0))))) predv_princess_35)) (and (or (not (<= 0 (+ (+ 16 (* (- 1) constv_princess_12)) (- 1)))) (not (<= 0 (+ constv_princess_12 (* (- 1) 0))))) predv_princess_31)) (and (and predv_princess_18 predv_princess_57) (not predv_princess_58))) (and (and predv_princess_34 predv_princess_41) (not predv_princess_42))) (and (or (= 0 (+ constv_princess_6 (* (- 1) constv_princess_14))) (not predv_princess_61)) predv_princess_62)) (and (and predv_princess_15 predv_princess_60) (not predv_princess_61))) (and (or (not predv_princess_36) (not predv_princess_39)) predv_princess_40)) (and (or (not predv_princess_20) (not predv_princess_55)) predv_princess_56)) (and (and (<= 0 (+ (+ 16 (* (- 1) constv_princess_2)) (- 1))) (<= 0 (+ constv_princess_2 (* (- 1) 0)))) (not predv_princess_22))) (and (and (<= 0 (+ (+ 2 (* (- 1) consts_0)) (- 1))) (<= 0 (+ consts_0 (* (- 1) 0)))) (not predv_princess_35))) (and (or (not (<= 0 (+ (+ 4 (* (- 1) consts_1)) (- 1)))) (not (<= 0 (+ consts_1 (* (- 1) 0))))) predv_princess_29))) (not (or (or (or (or (or (or (or (or (or (or (or (and (or (not predv_princess_29) (not predv_princess_46)) predv_princess_47) (and (or (not predv_princess_18) (not predv_princess_57)) predv_princess_58)) (and (or (not predv_princess_27) (not predv_princess_48)) predv_princess_49)) (not (= 0 (+ constv_princess_4 (* (- 1) (+ constv_princess_3 (* (- 1) (* 16 consts_3)))))))) (and (and (<= 0 (+ (+ 2 (* (- 1) consts_3)) (- 1))) (<= 0 (+ consts_3 (* (- 1) 0)))) (not predv_princess_20))) (and (and (or (not (<= 0 (+ (+ constv_princess_11 (* (- 1) 16)) (- 1)))) (= 0 (+ consto_0 (* (- 1) 1)))) (or (<= 0 (+ (+ constv_princess_11 (* (- 1) 16)) (- 1))) (not (= 0 (+ consto_0 (* (- 1) 1)))))) (not predv_princess_30))) (and (and (<= 0 (+ (+ 16 (* (- 1) constv2)) (- 1))) (<= 0 (+ constv2 (* (- 1) 0)))) (not predv_princess_36))) (and (and (<= 0 (+ 1 (* (- 1) consto_0))) (<= 0 (+ consto_0 (* (- 1) 0)))) (not predv_princess_32))) (and (and (or (not (<= 0 (+ (+ constv_princess_1 (* (- 1) 16)) (- 1)))) (= 0 (+ consto_2 (* (- 1) 1)))) (or (<= 0 (+ (+ constv_princess_1 (* (- 1) 16)) (- 1))) (not (= 0 (+ consto_2 (* (- 1) 1)))))) (not predv_princess_21))) (and (or (not predv_princess_22) (not predv_princess_53)) predv_princess_54)) (and (or (not (<= 0 (+ (+ 16 (* (- 1) constv_princess_10)) (- 1)))) (not (<= 0 (+ constv_princess_10 (* (- 1) 0))))) predv_princess_34)) (and (or (and (<= 0 (+ (+ constv_princess_5 (* (- 1) 16)) (- 1))) (not (= 0 (+ consto_3 (* (- 1) 1))))) (and (not (<= 0 (+ (+ constv_princess_5 (* (- 1) 16)) (- 1)))) (= 0 (+ consto_3 (* (- 1) 1))))) predv_princess_15))) (not (or (or (or (or (or (or (or (or (or (or (or (and (and (or (not (<= 0 (+ (+ constv_princess_3 (* (- 1) 16)) (- 1)))) (<= 0 (+ consts_3 (* (- 1) 1)))) (or (<= 0 (+ (+ constv_princess_3 (* (- 1) 16)) (- 1))) (not (<= 0 (+ consts_3 (* (- 1) 1)))))) (not predv_princess_18)) (and (or (not (<= 0 (+ (+ 16 (* (- 1) constv_princess_2)) (- 1)))) (not (<= 0 (+ constv_princess_2 (* (- 1) 0))))) predv_princess_22)) (and (or (not predv_princess_19) (not predv_princess_56)) predv_princess_57)) (and (and predv_princess_19 predv_princess_56) (not predv_princess_57))) (and (or (not predv_princess_16) (not predv_princess_59)) predv_princess_60)) (not (= 0 (+ constv_princess_12 (* (- 1) (+ constv_princess_11 (* (- 1) (* 16 consto_0)))))))) (and (or (not (<= 0 (+ (+ 16 (* (- 1) constv_princess_4)) (- 1)))) (not (<= 0 (+ constv_princess_4 (* (- 1) 0))))) predv_princess_19)) (and (not (<= 0 (+ (+ 16 (* (- 1) (* 2 constv2))) (- 1)))) (not (= 0 (+ constv_princess_66 (* (- 1) constv_princess_65)))))) (and (and (<= 0 (+ (+ 16 (* (- 1) constv_princess_14)) (- 1))) (<= 0 (+ constv_princess_14 (* (- 1) 0)))) (not predv_princess_25))) (not (= 0 (+ constv_princess_5 (* (- 1) (+ constv0 constv_princess_4)))))) (and (and (<= 0 (+ (+ 16 (* (- 1) constv_princess_10)) (- 1))) (<= 0 (+ constv_princess_10 (* (- 1) 0)))) (not predv_princess_34))) (and (or (not (<= 0 (+ (+ 2 (* (- 1) consts_3)) (- 1)))) (not (<= 0 (+ consts_3 (* (- 1) 0))))) predv_princess_20)))) :named IP_0))
(assert (! (and (not (or (or (or (or (or (or (or (or (or (or (not (= 0 (+ constv_princess_13 (* (- 1) (+ constv_princess_12 constv_princess_8))))) (and (and (or (not (<= 0 (+ (+ constv_princess_13 (* (- 1) 16)) (- 1)))) (= 0 (+ consto_1 (* (- 1) 1)))) (or (<= 0 (+ (+ constv_princess_13 (* (- 1) 16)) (- 1))) (not (= 0 (+ consto_1 (* (- 1) 1)))))) (not predv_princess_24))) (and (and predv_princess_31 predv_princess_44) (not predv_princess_45))) (and (and (<= 0 (+ 1 (* (- 1) consto_3))) (<= 0 (+ consto_3 (* (- 1) 0)))) (not predv_princess_17))) false) (not (= 0 (+ constv_princess_14 (* (- 1) (+ constv_princess_13 (* (- 1) (* 16 consto_1)))))))) (and (or (not predv_princess_31) (not predv_princess_44)) predv_princess_45)) (and (and predv_princess_36 predv_princess_39) (not predv_princess_40))) (and (or (not (<= 0 (+ (+ 16 (* (- 1) constv1)) (- 1)))) (not (<= 0 (+ constv1 (* (- 1) 0))))) predv_princess_37)) (and (not (<= 0 (+ (+ 32 (* (- 1) (* 2 constv2))) (- 1)))) (not (= 0 (+ constv_princess_65 (* (- 1) (+ (* 2 constv2) (* (- 1) 32)))))))) (and (or (not predv_princess_23) (not predv_princess_52)) predv_princess_53))) (not (or (or (or (or (or (or (or (or (or (or (or (and (and (or (not (<= 0 (+ (+ constv_princess_9 (* (- 1) 16)) (- 1)))) (<= 0 (+ consts_0 (* (- 1) 1)))) (or (<= 0 (+ (+ constv_princess_9 (* (- 1) 16)) (- 1))) (not (<= 0 (+ consts_0 (* (- 1) 1)))))) (not predv_princess_33)) (and (and predv_princess_21 predv_princess_54) (not predv_princess_55))) (and (and predv_princess_30 predv_princess_45) (not predv_princess_46))) (not (= 0 (+ constv_princess_8 (* (- 1) (+ constv_princess_7 (* (- 1) (* 16 consts_1)))))))) (and (or (not predv_princess_32) (not predv_princess_43)) predv_princess_44)) (not (= 0 (+ constv_princess_1 (* (- 1) (+ constv1 constv_princess_0)))))) (and (or (not (<= 0 (+ 1 (* (- 1) consto_1)))) (not (<= 0 (+ consto_1 (* (- 1) 0))))) predv_princess_26)) (and (and predv_princess_22 predv_princess_53) (not predv_princess_54))) (and (or (not (<= 0 (+ 1 (* (- 1) consto_3)))) (not (<= 0 (+ consto_3 (* (- 1) 0))))) predv_princess_17)) (and (or (not predv_princess_15) (not predv_princess_60)) predv_princess_61)) (and (or (not predv_princess_26) (not predv_princess_49)) predv_princess_50)) (and (and predv_princess_20 predv_princess_55) (not predv_princess_56)))) (not (or (or (or (or (or (or (or (or (or (or (or (and (and predv_princess_37 predv_princess_38) (not predv_princess_39)) (and (or (not predv_princess_37) (not predv_princess_38)) predv_princess_39)) (and (and predv_princess_25 predv_princess_50) (not predv_princess_51))) (and (or (not predv_princess_28) (not predv_princess_47)) predv_princess_48)) (and (<= 0 (+ (+ 16 (* (- 1) (* 2 constv2))) (- 1))) (not (= 0 (+ constv_princess_66 (* (- 1) (* 2 constv2))))))) (and (or (not (<= 0 (+ (+ 16 (* (- 1) constv0)) (- 1)))) (not (<= 0 (+ constv0 (* (- 1) 0))))) predv_princess_38)) (and (or (not (<= 0 (+ (+ 16 (* (- 1) constv_princess_14)) (- 1)))) (not (<= 0 (+ constv_princess_14 (* (- 1) 0))))) predv_princess_25)) (and (<= 0 (+ (+ 32 (* (- 1) (* 2 constv2))) (- 1))) (not (= 0 (+ constv_princess_65 (* (- 1) (+ (* 2 constv2) (* (- 1) 16)))))))) (and (and predv_princess_35 predv_princess_40) (not predv_princess_41))) (and (and predv_princess_23 predv_princess_52) (not predv_princess_53))) (and (or (not (<= 0 (+ (+ 16 (* (- 1) constv_princess_6)) (- 1)))) (not (<= 0 (+ constv_princess_6 (* (- 1) 0))))) predv_princess_16)) (and (and (<= 0 (+ (+ 16 (* (- 1) constv_princess_4)) (- 1))) (<= 0 (+ constv_princess_4 (* (- 1) 0)))) (not predv_princess_19)))) (not (or (or (or (or (or (or (or (or (or (or (or (not (= 0 (+ constv_princess_9 (* (- 1) (* 2 constv1))))) (and (or (not (<= 0 (+ (+ 16 (* (- 1) constv2)) (- 1)))) (not (<= 0 (+ constv2 (* (- 1) 0))))) predv_princess_36)) (not (= 0 (+ constv_princess_0 (* (- 1) constv_princess_66))))) false) (not (= 0 (+ constv_princess_10 (* (- 1) (+ constv_princess_9 (* (- 1) (* 16 consts_0)))))))) (and (or (and (<= 0 (+ (+ constv_princess_3 (* (- 1) 16)) (- 1))) (not (<= 0 (+ consts_3 (* (- 1) 1))))) (and (not (<= 0 (+ (+ constv_princess_3 (* (- 1) 16)) (- 1)))) (<= 0 (+ consts_3 (* (- 1) 1))))) predv_princess_18)) (and (and predv_princess_26 predv_princess_49) (not predv_princess_50))) (and (and predv_princess_27 predv_princess_48) (not predv_princess_49))) (and (or (and (<= 0 (+ (+ constv_princess_9 (* (- 1) 16)) (- 1))) (not (<= 0 (+ consts_0 (* (- 1) 1))))) (and (not (<= 0 (+ (+ constv_princess_9 (* (- 1) 16)) (- 1)))) (<= 0 (+ consts_0 (* (- 1) 1))))) predv_princess_33)) (and (or (not predv_princess_33) (not predv_princess_42)) predv_princess_43)) (and (and (<= 0 (+ (+ 16 (* (- 1) constv_princess_8)) (- 1))) (<= 0 (+ constv_princess_8 (* (- 1) 0)))) (not predv_princess_28))) (and (or (and (<= 0 (+ (+ constv_princess_13 (* (- 1) 16)) (- 1))) (not (= 0 (+ consto_1 (* (- 1) 1))))) (and (not (<= 0 (+ (+ constv_princess_13 (* (- 1) 16)) (- 1)))) (= 0 (+ consto_1 (* (- 1) 1))))) predv_princess_24))) (not (or (or (or (or (or (or (or (or (or (or (or (and (and (not (= 0 (+ constv_princess_6 (* (- 1) constv_princess_14)))) predv_princess_61) (not predv_princess_62)) (and (and (<= 0 (+ (+ 16 (* (- 1) constv_princess_12)) (- 1))) (<= 0 (+ constv_princess_12 (* (- 1) 0)))) (not predv_princess_31))) (and (and (or (not (<= 0 (+ (+ constv_princess_5 (* (- 1) 16)) (- 1)))) (= 0 (+ consto_3 (* (- 1) 1)))) (or (<= 0 (+ (+ constv_princess_5 (* (- 1) 16)) (- 1))) (not (= 0 (+ consto_3 (* (- 1) 1)))))) (not predv_princess_15))) (and (and (<= 0 (+ 1 (* (- 1) consto_2))) (<= 0 (+ consto_2 (* (- 1) 0)))) (not predv_princess_23))) (and (or (not predv_princess_24) (not predv_princess_51)) predv_princess_52)) (and (or (not predv_princess_17) (not predv_princess_58)) predv_princess_59)) (and (or (not (<= 0 (+ 1 (* (- 1) consto_2)))) (not (<= 0 (+ consto_2 (* (- 1) 0))))) predv_princess_23)) (and (and predv_princess_32 predv_princess_43) (not predv_princess_44))) (and (and predv_princess_29 predv_princess_46) (not predv_princess_47))) (and (and (<= 0 (+ 1 (* (- 1) consto_1))) (<= 0 (+ consto_1 (* (- 1) 0)))) (not predv_princess_26))) (and (and (<= 0 (+ (+ 16 (* (- 1) constv1)) (- 1))) (<= 0 (+ constv1 (* (- 1) 0)))) (not predv_princess_37))) (not (= 0 (+ constv_princess_6 (* (- 1) (+ constv_princess_5 (* (- 1) (* 16 consto_3)))))))))) :named IP_1))
(check-sat)
(get-interpolants IP_0 IP_1)
(exit)
